69
125
87	5
86	3
85	2
84	4
83	4
82	5
81	1
80	1
78	2
77	7
76	5
75	3
74	1
73	5
72	2
71	1
70	5
69	2
68	2
67	3
66	3
65	3
64	5
63	4
62	3
61	1
60	1
59	3
58	4
56	2
55	4
52	2
50	2
49	1
48	1
47	3
46	4
45	3
43	2
42	1
41	6
40	4
39	4
38	3
37	1
36	4
35	2
34	2
33	2
32	4
31	1
30	4
29	4
28	3
27	2
26	4
25	2
24	1
22	5
21	3
20	2
19	2
18	2
17	2
16	4
15	3
14	3
13	1
12	5
